<number of tasks>
11

<cycle time>
14

<task times>
1 6
2 2
3 5
4 7
5 1
6 2
7 3
8 6
9 5
10 5
11 4

<precedence relations>
1,2
1,3
1,4
1,5
2,6
3,7
4,7
5,7
6,8
7,9
8,10
9,11
10,11

<setup times forward>
3,8:1
4,8:1
5,8:1
6,8:1
7,8:1
8,3:1
8,4:1
8,5:1
8,7:1
8,9:1
8,10:1
9,8:1

<setup times backward>
3,8:1
4,8:1
5,8:1
7,8:1
9,8:1
10,8:1
11,8:1

<end>

<optimal SALBP-1 value>
4


<rand seed>
467321153

<Lower Bounds>
Lm1=4
Lms1=4
Lm2=1
Lm3=3
Lm4=4
Best=4

<Optimal Stations (Iterations: 10)>
4
